 &CONTROL
                 calculation = 'scf' ,
                restart_mode = 'from_scratch' ,
                  wf_collect = .true. ,
                      outdir = '/mnt/scratch_b/users/m/marapcha/hBN.Torsion/Armchair/TMP_DIR' ,
                  pseudo_dir = '/mnt/scratch_b/users/m/marapcha/hBN.Torsion/Armchair/PSEUDO_DIR/' ,
               etot_conv_thr = 1.0D-4 ,
               forc_conv_thr = 1.0D-3 ,
                      prefix = 'BN_arm'
 /
 &SYSTEM
                       ibrav = 0,
                   celldm(1) = 45.7057409260
                         nat = 22,
                        ntyp = 2,
                     ecutwfc = 60.0 ,
                     ecutrho = 480.0 ,
                        nbnd = 48,
                 occupations = 'smearing' ,
                     degauss = 0.005 ,
 /
 &ELECTRONS
            electron_maxstep = 100,
                    conv_thr = 1.0d-6 ,
                 mixing_mode = 'plain' ,
                 mixing_beta = 0.7 ,
             diagonalization = 'david' ,
 /
CELL_PARAMETERS alat 
     1.000000000    0.000000000    0.000000000 
     0.000000000    .1800692830    0.000000000 
     0.000000000    0.000000000    .4801847548
ATOMIC_SPECIES
 B   10.810 B.pbe-n-kjpaw_psl.1.0.0.UPF
 N   14.01  N.pbe-n-kjpaw_psl.1.0.0.UPF
ATOMIC_POSITIONS bohr 
B  -7.1275622778   0.00000000    0.000000000
N  -4.7517081852   1.3717000000    0.000000000
B  -2.3758540926   0.00000000    0.000000000
N  0.000000   1.3717000000    0.000000000
B  2.3758540926   0.00000000    0
N  4.7517081852   1.3717000000    0
B  7.1275622778   0.00000000    0
N  -7.1275622778   5.4868000000    0.000000000
B  -4.7517081852   4.1151000000    0.000000000
N  -2.3758540926  5.4868000000    0.000000000
B  0.000000  4.1151000000    0.000000000
N  2.3758540926  5.4868000000   0
B  4.7517081852  4.1151000000   0
N  7.1275622778  5.4868000000   0
N  -9.5034163704  1.3717000000    0.000000000
B  -9.5034163704  4.1151000000    0.000000000
N  9.5034163704  1.3717000000   0
B  9.5034163704  4.1151000000   0
B  -11.8792704630  0.0000000    0.000000000
N  -11.8792704630  5.4868000000    0.000000000
B  11.8792704630  0.0000000   0
N  11.8792704630  5.4868000000   0
K_POINTS automatic
1 24 1 0 0 0
