 &CONTROL
                 calculation = 'scf' ,
                restart_mode = 'from_scratch' ,
                  wf_collect = .true. ,
                      outdir = '/mnt/scratch_b/users/m/marapcha/hBN.Torsion/Zig_zag/TMP_DIR' ,
                  pseudo_dir = '/mnt/scratch_b/users/m/marapcha/hBN.Torsion/Zig_zag/PSEUDO_DIR/' ,
               etot_conv_thr = 1.0D-4 ,
               forc_conv_thr = 1.0D-3 ,
                      prefix = 'BN_zig' ,
 /
 &SYSTEM
                       ibrav = 0,
                   celldm(1) = 54.8680000000
                         nat = 18,
                        ntyp = 2,
                     ecutwfc = 60.0 ,
                     ecutrho = 480.0 ,
                        nbnd = 40,
                 occupations = 'smearing' ,
                     degauss = 0.005 ,
 /
 &ELECTRONS
            electron_maxstep = 100,
                    conv_thr = 1.0d-6 ,
                 mixing_mode = 'plain' ,
                 mixing_beta = 0.7 ,
             diagonalization = 'david' ,
 /
CELL_PARAMETERS alat 
     1.000000000    0.000000000    0.000000000 
     0.000000000    .0866025403    0.000000000 
     0.000000000    0.000000000    .4000000000
ATOMIC_SPECIES
 B   10.810 B.pbe-n-kjpaw_psl.1.0.0.UPF
 N   14.01  N.pbe-n-kjpaw_psl.1.0.0.UPF
ATOMIC_POSITIONS bohr 
B  -8.2302000000   0.00000000    0.000000000
N  -6.8585000000   2.3758540926    0.000000000
B  -4.1151000000   2.3758540926    0.000000000
N  -2.7434000000   0.00000000    0.000000000
B  0.00000000   0.00000000    0.000000000
N  1.3717000000   2.3758540926   0
B  4.1151000000   2.3758540926   0
N  5.4868000000   0.00000000   0
B  8.2302000000   0.00000000   0
N  9.6019000000  2.3758540926  0
N  -10.9736000000  0.00000000   0.000000000
B  -12.3453000000  2.3758540926   0.000000000
B  12.3453000000  2.3758540926  0
N  13.7170000000  0.00000000  0
N  -15.0887000000  2.3758540926   0.000000000
B  -16.4604000000  0.00000000   0.000000000
B  16.4604000000  0.00000000  0
N  17.8321000000  2.3758540926  0
K_POINTS automatic
1 24 1 0 0 0
