pair_style zero 10
pair_coeff * *
bond_style morse
bond_coeff 1 5.35 1.897 1.4518
angle_style quartic
angle_coeff 1 120 2.685 -1.78 0
angle_coeff 2 120 2.685 -1.78 0
dihedral_style harmonic
dihedral_coeff 1 0.109 -1 2
dihedral_coeff 2 0.066 -1 2
